33D32945 STP File, STP Format Version 1.0

SECTION Comment
Name    "Prosty graf 1c"
END

SECTION Graph
Nodes 5
Edges 6
E 1 2 3
E 1 5 2
E 2 3 7
E 2 4 4
E 3 4 1
E 4 5 2
END

SECTION Terminals
Terminals 2
T 2
T 5
END

EOF